solution status: optimal solution found
objective value:                     133616.838051021
d11(0,0)                                            1 	(obj:0)
d11(1,1)                                            1 	(obj:0)
d11(2,3)                                            1 	(obj:0)
d11(2,5)                                            1 	(obj:0)
d11(2,6)                                            1 	(obj:0)
d11(3,7)                                            1 	(obj:0)
d11(3,8)                                            1 	(obj:0)
d11(3,9)                                            1 	(obj:0)
d11(3,10)                                           1 	(obj:0)
d11(3,11)                                           1 	(obj:0)
d11(3,12)                                           1 	(obj:0)
d11(3,13)                                           1 	(obj:0)
d11(3,14)                                           1 	(obj:0)
d21(3,7)                                            1 	(obj:0)
d21(3,8)                                            1 	(obj:0)
d21(3,9)                                            1 	(obj:0)
STE(1,1)                             4137.75010111115 	(obj:0)
STE(0,0)                                         6300 	(obj:0)
STE(1,2)                                         5796 	(obj:0)
STE(2,3)                             1975.50020222234 	(obj:0)
STE(2,4)                             3633.75010111115 	(obj:0)
STE(2,5)                             3633.75010111118 	(obj:0)
STE(2,6)                                         5292 	(obj:0)
STE(3,7)                            -1028.24989888885 	(obj:0)
STE(3,8)                             629.999999999971 	(obj:0)
STE(3,9)                             629.999999999972 	(obj:0)
STE(3,10)                            2288.24989888879 	(obj:0)
STE(3,11)                            629.999999999999 	(obj:0)
STE(3,12)                            2288.24989888882 	(obj:0)
STE(3,13)                            2288.24989888882 	(obj:0)
STE(3,14)                            3946.49979777763 	(obj:0)
AVE(2)                               3315.65537776224 	(obj:0)
y1(1,1)                              1492.42490899996 	(obj:0)
y1(2,3)                              1492.42490899994 	(obj:0)
y1(2,5)                              1492.42490899994 	(obj:0)
y1(3,7)                              2249.77509100006 	(obj:0)
y1(3,8)                              757.350182000128 	(obj:0)
y1(3,9)                              2249.77509100006 	(obj:0)
y1(3,10)                             757.350182000129 	(obj:0)
y1(3,11)                             2249.77509100006 	(obj:0)
y1(3,12)                             757.350182000129 	(obj:0)
y1(3,13)                             2249.77509100006 	(obj:0)
y1(3,14)                             757.350182000129 	(obj:0)
AVE(3)                               3315.65799770399 	(obj:0)
WG(1)                                3248.33172520918 	(obj:10)
WG(2)                                3315.65537776224 	(obj:10)
WG(3)                                3315.65799770399 	(obj:10)
BG(1)                                947.960773770411 	(obj:10)
BG(2)                                880.637121217326 	(obj:10)
BG(3)                                1653.44080943897 	(obj:10)
AVE(1)                               3248.33172520918 	(obj:0)
